p tw 137 148
1 2
2 50
3 14
4 42
5 6
6 7
7 8
8 9
8 28
9 10
10 11
11 12
12 13
13 15
14 25
15 16
16 17
16 19
17 18
18 42
19 20
20 21
21 22
21 132
22 23
23 24
24 26
25 36
26 27
27 132
28 29
29 30
30 31
30 132
31 32
32 33
32 132
33 34
34 35
35 37
36 44
37 38
38 132
39 40
40 41
41 42
42 43
44 45
45 46
46 47
46 60
47 48
48 49
49 51
50 61
51 52
52 53
53 54
54 55
55 56
56 57
57 58
58 59
59 42
60 62
61 72
62 63
63 64
64 65
65 66
65 79
66 67
67 68
68 69
69 70
70 71
71 73
72 83
73 74
74 75
75 76
76 77
77 78
78 42
79 80
80 81
81 82
82 84
83 94
84 85
85 86
86 87
87 88
88 89
89 90
90 91
91 92
92 93
93 95
94 105
94 3
95 96
96 97
97 98
98 99
99 100
100 101
101 102
102 103
103 104
104 106
105 116
106 107
107 108
108 109
109 110
110 111
111 112
112 113
113 114
114 115
115 117
116 127
116 136
117 118
117 130
118 119
119 120
120 121
121 122
122 123
123 124
124 125
125 126
126 128
127 39
128 129
129 130
130 131
131 132
132 133
133 134
133 39
134 135
135 136
136 137
137 4
137 5
